
Welcome to IBM(R) ILOG(R) CPLEX(R) Interactive Optimizer 22.1.1.0
  with Simplex, Mixed Integer & Barrier Optimizers
5725-A06 5725-A29 5724-Y48 5724-Y49 5724-Y54 5724-Y55 5655-Y21
Copyright IBM Corp. 1988, 2022.  All Rights Reserved.

Type 'help' for a list of available commands.
Type 'help' followed by a command name for more
information on commands.

CPLEX> Selected objective sense:  MINIMIZE
Selected objective  name:  00000000
Selected RHS        name:  RHS1
Selected bound      name:  BOUND
Problem 'ee.mps' read.
Read time = 0.03 sec. (3.14 ticks)
CPLEX> New value for time limit in seconds: 7200
CPLEX> New value for parallel optimization mode: -1
CPLEX> New value for default parallel thread count: 40
CPLEX> New value for mixed integer optimality gap tolerance: 1e-13
CPLEX> Version identifier: 22.1.1.0 | 2022-11-28 | 9160aff4d
CPXPARAM_Threads                                 40
CPXPARAM_Parallel                                -1
CPXPARAM_TimeLimit                               7200
CPXPARAM_MIP_Tolerances_MIPGap                   1e-13
Found incumbent of value 0.000000 after 0.00 sec. (0.31 ticks)
Tried aggregator 2 times.
MIP Presolve eliminated 183 rows and 2745 columns.
MIP Presolve modified 5862 coefficients.
Aggregator did 713 substitutions.
Reduced MIP has 3624 rows, 7744 columns, and 28665 nonzeros.
Reduced MIP has 7744 binaries, 0 generals, 0 SOSs, and 0 indicators.
Presolve time = 0.07 sec. (68.79 ticks)
Probing fixed 139 vars, tightened 0 bounds.
Probing time = 0.08 sec. (39.83 ticks)
Tried aggregator 2 times.
Detecting symmetries...
MIP Presolve eliminated 41 rows and 188 columns.
MIP Presolve modified 15 coefficients.
Aggregator did 47 substitutions.
Reduced MIP has 3536 rows, 7495 columns, and 27780 nonzeros.
Reduced MIP has 7495 binaries, 0 generals, 0 SOSs, and 0 indicators.
Presolve time = 0.07 sec. (74.70 ticks)
Probing fixed 15 vars, tightened 0 bounds.
Probing time = 0.07 sec. (37.18 ticks)
Clique table members: 18113.
MIP emphasis: balance optimality and feasibility.
MIP search method: dynamic search.
Parallel mode: opportunistic, using up to 40 threads.
Root relaxation solution time = 0.13 sec. (121.56 ticks)

        Nodes                                         Cuts/
   Node  Left     Objective  IInf  Best Integer    Best Bound    ItCnt     Gap

*     0+    0                            0.0000  -1.31000e+13              --- 
*     0+    0                      -5.50000e+12  -1.31000e+13           138.18%
      0     0  -1.30900e+13    64  -5.50000e+12  -1.30900e+13     2514  138.00%
*     0+    0                      -1.30900e+13  -1.30900e+13             0.00%
      0     0  -1.30900e+13   113  -1.30900e+13      Cuts: 58     3031    0.00%
*     0+    0                      -1.30900e+13  -1.30900e+13             0.00%
      0     0  -1.30900e+13   145  -1.30900e+13      Cuts: 75     3142    0.00%
*     0+    0                      -1.30900e+13  -1.30900e+13             0.00%
Detecting symmetries...

Repeating presolve.
Tried aggregator 2 times.
MIP Presolve eliminated 3088 rows and 6778 columns.
MIP Presolve added 6 rows and 0 columns.
MIP Presolve modified 10 coefficients.
Aggregator did 243 substitutions.
Reduced MIP has 211 rows, 452 columns, and 1488 nonzeros.
Reduced MIP has 452 binaries, 0 generals, 0 SOSs, and 0 indicators.
Presolve time = 0.01 sec. (12.13 ticks)
Probing fixed 3 vars, tightened 0 bounds.
Probing time = 0.00 sec. (0.42 ticks)
Tried aggregator 1 time.
Detecting symmetries...
MIP Presolve eliminated 1 rows and 3 columns.
Reduced MIP has 210 rows, 449 columns, and 1475 nonzeros.
Reduced MIP has 449 binaries, 0 generals, 0 SOSs, and 0 indicators.
Presolve time = 0.00 sec. (1.03 ticks)
Represolve time = 0.02 sec. (24.71 ticks)
Probing time = 0.00 sec. (0.39 ticks)
Clique table members: 645.
MIP emphasis: balance optimality and feasibility.
MIP search method: dynamic search.
Parallel mode: opportunistic, using up to 40 threads.
Root relaxation solution time = 0.00 sec. (3.73 ticks)

        Nodes                                         Cuts/
   Node  Left     Objective  IInf  Best Integer    Best Bound    ItCnt     Gap

*     0+    0                      -1.30900e+13  -1.30900e+13             0.00%
      0     0  -1.30900e+13    33  -1.30900e+13  -1.30900e+13     3428    0.00%
      0     0  -1.30900e+13    37  -1.30900e+13      Cuts: 73     3505    0.00%
      0     0  -1.30900e+13    22  -1.30900e+13      Cuts: 24     3534    0.00%
      0     0  -1.30900e+13    42  -1.30900e+13      Cuts: 10     3571    0.00%

Repeating presolve.
Tried aggregator 2 times.
MIP Presolve eliminated 65 rows and 231 columns.
MIP Presolve modified 11 coefficients.
Aggregator did 33 substitutions.
Reduced MIP has 112 rows, 183 columns, and 598 nonzeros.
Reduced MIP has 183 binaries, 0 generals, 0 SOSs, and 0 indicators.
Presolve time = 0.00 sec. (0.87 ticks)
Probing fixed 4 vars, tightened 0 bounds.
Probing time = 0.00 sec. (0.15 ticks)
Tried aggregator 1 time.
MIP Presolve eliminated 4 rows and 4 columns.
Reduced MIP has 108 rows, 179 columns, and 578 nonzeros.
Reduced MIP has 179 binaries, 0 generals, 0 SOSs, and 0 indicators.
Presolve time = 0.00 sec. (0.31 ticks)
Probing time = 0.00 sec. (0.14 ticks)
Tried aggregator 1 time.
Detecting symmetries...
Reduced MIP has 108 rows, 179 columns, and 578 nonzeros.
Reduced MIP has 179 binaries, 0 generals, 0 SOSs, and 0 indicators.
Presolve time = 0.00 sec. (0.41 ticks)
Represolve time = 0.01 sec. (7.49 ticks)
Probing time = 0.00 sec. (0.14 ticks)
Clique table members: 242.
MIP emphasis: balance optimality and feasibility.
MIP search method: dynamic search.
Parallel mode: opportunistic, using up to 40 threads.
Root relaxation solution time = 0.00 sec. (0.85 ticks)

        Nodes                                         Cuts/
   Node  Left     Objective  IInf  Best Integer    Best Bound    ItCnt     Gap

*     0+    0                      -1.30900e+13  -1.30900e+13             0.00%
      0     0  -1.30900e+13    24  -1.30900e+13  -1.30900e+13     3674    0.00%
      0     0  -1.30900e+13    26  -1.30900e+13      Fract: 1     3689    0.00%
      0     0        cutoff        -1.30900e+13                   3689    0.00%
Elapsed time = 1.02 sec. (844.60 ticks, tree = 0.01 MB, solutions = 5)

Clique cuts applied:  22
Cover cuts applied:  14
Mixed integer rounding cuts applied:  3
Zero-half cuts applied:  2
Lift and project cuts applied:  3
Gomory fractional cuts applied:  10

Root node processing (before b&c):
  Real time             =    1.02 sec. (845.23 ticks)
Parallel b&c, 40 threads:
  Real time             =    0.00 sec. (0.00 ticks)
  Sync time (average)   =    0.00 sec.
  Wait time (average)   =    0.00 sec.
                          ------------
Total (root+branch&cut) =    1.02 sec. (845.23 ticks)

Solution pool: 5 solutions saved.

MIP - Integer optimal solution:  Objective = -1.3089999690e+13
Solution time =    1.05 sec.  Iterations = 3689  Nodes = 0
Deterministic time = 845.26 ticks  (806.20 ticks/sec)

CPLEX> Solution 'p6' written to file 'ee.sol'.
CPLEX> 